 $CONTRL ECP=READ 
         RUNTYP=ENERGY 
         SCFTYP=RHF
         MULT=1  
         COORD=UNIQUE
         UNITS=BOHR  
 $END
 $SYSTEM MWORDS=1500 $END
 $BASIS
        EXTFIL=.TRUE.
        GBASIS=BFD-Dan
 $END
 $DATA
Formaldehyde CC3/aug-cc-pVTZ geometry
CNV 2

C 6.0 0.00000000  0.00000000 -1.13947666
O 8.0 0.00000000  0.00000000  1.14402883
H 1.0 0.00000000  1.76627623 -2.23398653
 $END 

 $ECP
C-ECP       GEN 2 1
3
   4.00000000 1 8.35973821
  33.43895285 3 4.48361888
 -19.17537323 2 3.93831258
1
  22.55164191 2 5.02991637
O GEN 2 1
3
   6.00000000 1 9.29793903
  55.78763416 3 8.86492204
 -38.81978498 2 8.62925665
1
 38.41914135 2 8.71924452
H-ECP  GEN 0 0
3
 1.000000000000 1 25.000000000000
25.000000000000 3 10.821821902641
-8.228005709676 2  9.368618758833
H-ECP
$END
